sat_in/bonus/28.wcnf
p wcnf 40 445 16
1 1 6 11 16 21 26 31 36 0
2 2 7 12 17 22 27 32 37 0
3 3 8 13 18 23 28 33 38 0
4 4 9 14 19 24 29 34 39 0
5 5 10 15 20 25 30 35 40 0
16 -1 -12 0
16 -1 -13 0
16 -1 -14 0
16 -1 -15 0
16 -2 -11 0
16 -2 -13 0
16 -2 -14 0
16 -2 -15 0
16 -3 -11 0
16 -3 -12 0
16 -3 -14 0
16 -3 -15 0
16 -4 -11 0
16 -4 -12 0
16 -4 -13 0
16 -4 -15 0
16 -5 -11 0
16 -5 -12 0
16 -5 -13 0
16 -5 -14 0
16 -1 -32 0
16 -1 -33 0
16 -1 -34 0
16 -1 -35 0
16 -2 -31 0
16 -2 -33 0
16 -2 -34 0
16 -2 -35 0
16 -3 -31 0
16 -3 -32 0
16 -3 -34 0
16 -3 -35 0
16 -4 -31 0
16 -4 -32 0
16 -4 -33 0
16 -4 -35 0
16 -5 -31 0
16 -5 -32 0
16 -5 -33 0
16 -5 -34 0
16 -1 -37 0
16 -1 -38 0
16 -1 -39 0
16 -1 -40 0
16 -2 -36 0
16 -2 -38 0
16 -2 -39 0
16 -2 -40 0
16 -3 -36 0
16 -3 -37 0
16 -3 -39 0
16 -3 -40 0
16 -4 -36 0
16 -4 -37 0
16 -4 -38 0
16 -4 -40 0
16 -5 -36 0
16 -5 -37 0
16 -5 -38 0
16 -5 -39 0
16 -6 -37 0
16 -6 -38 0
16 -6 -39 0
16 -6 -40 0
16 -7 -36 0
16 -7 -38 0
16 -7 -39 0
16 -7 -40 0
16 -8 -36 0
16 -8 -37 0
16 -8 -39 0
16 -8 -40 0
16 -9 -36 0
16 -9 -37 0
16 -9 -38 0
16 -9 -40 0
16 -10 -36 0
16 -10 -37 0
16 -10 -38 0
16 -10 -39 0
16 -11 -17 0
16 -11 -18 0
16 -11 -19 0
16 -11 -20 0
16 -12 -16 0
16 -12 -18 0
16 -12 -19 0
16 -12 -20 0
16 -13 -16 0
16 -13 -17 0
16 -13 -19 0
16 -13 -20 0
16 -14 -16 0
16 -14 -17 0
16 -14 -18 0
16 -14 -20 0
16 -15 -16 0
16 -15 -17 0
16 -15 -18 0
16 -15 -19 0
16 -11 -22 0
16 -11 -23 0
16 -11 -24 0
16 -11 -25 0
16 -12 -21 0
16 -12 -23 0
16 -12 -24 0
16 -12 -25 0
16 -13 -21 0
16 -13 -22 0
16 -13 -24 0
16 -13 -25 0
16 -14 -21 0
16 -14 -22 0
16 -14 -23 0
16 -14 -25 0
16 -15 -21 0
16 -15 -22 0
16 -15 -23 0
16 -15 -24 0
16 -11 -27 0
16 -11 -28 0
16 -11 -29 0
16 -11 -30 0
16 -12 -26 0
16 -12 -28 0
16 -12 -29 0
16 -12 -30 0
16 -13 -26 0
16 -13 -27 0
16 -13 -29 0
16 -13 -30 0
16 -14 -26 0
16 -14 -27 0
16 -14 -28 0
16 -14 -30 0
16 -15 -26 0
16 -15 -27 0
16 -15 -28 0
16 -15 -29 0
16 -16 -22 0
16 -16 -23 0
16 -16 -24 0
16 -16 -25 0
16 -17 -21 0
16 -17 -23 0
16 -17 -24 0
16 -17 -25 0
16 -18 -21 0
16 -18 -22 0
16 -18 -24 0
16 -18 -25 0
16 -19 -21 0
16 -19 -22 0
16 -19 -23 0
16 -19 -25 0
16 -20 -21 0
16 -20 -22 0
16 -20 -23 0
16 -20 -24 0
16 -26 -32 0
16 -26 -33 0
16 -26 -34 0
16 -26 -35 0
16 -27 -31 0
16 -27 -33 0
16 -27 -34 0
16 -27 -35 0
16 -28 -31 0
16 -28 -32 0
16 -28 -34 0
16 -28 -35 0
16 -29 -31 0
16 -29 -32 0
16 -29 -33 0
16 -29 -35 0
16 -30 -31 0
16 -30 -32 0
16 -30 -33 0
16 -30 -34 0
16 -26 -37 0
16 -26 -38 0
16 -26 -39 0
16 -26 -40 0
16 -27 -36 0
16 -27 -38 0
16 -27 -39 0
16 -27 -40 0
16 -28 -36 0
16 -28 -37 0
16 -28 -39 0
16 -28 -40 0
16 -29 -36 0
16 -29 -37 0
16 -29 -38 0
16 -29 -40 0
16 -30 -36 0
16 -30 -37 0
16 -30 -38 0
16 -30 -39 0
16 -31 -37 0
16 -31 -38 0
16 -31 -39 0
16 -31 -40 0
16 -32 -36 0
16 -32 -38 0
16 -32 -39 0
16 -32 -40 0
16 -33 -36 0
16 -33 -37 0
16 -33 -39 0
16 -33 -40 0
16 -34 -36 0
16 -34 -37 0
16 -34 -38 0
16 -34 -40 0
16 -35 -36 0
16 -35 -37 0
16 -35 -38 0
16 -35 -39 0
16 -1 -6 0
16 -1 -11 0
16 -1 -16 0
16 -1 -21 0
16 -1 -26 0
16 -1 -31 0
16 -1 -36 0
16 -2 -7 0
16 -2 -12 0
16 -2 -17 0
16 -2 -22 0
16 -2 -27 0
16 -2 -32 0
16 -2 -37 0
16 -3 -8 0
16 -3 -13 0
16 -3 -18 0
16 -3 -23 0
16 -3 -28 0
16 -3 -33 0
16 -3 -38 0
16 -4 -9 0
16 -4 -14 0
16 -4 -19 0
16 -4 -24 0
16 -4 -29 0
16 -4 -34 0
16 -4 -39 0
16 -5 -10 0
16 -5 -15 0
16 -5 -20 0
16 -5 -25 0
16 -5 -30 0
16 -5 -35 0
16 -5 -40 0
16 -6 -11 0
16 -6 -16 0
16 -6 -21 0
16 -6 -26 0
16 -6 -31 0
16 -6 -36 0
16 -7 -12 0
16 -7 -17 0
16 -7 -22 0
16 -7 -27 0
16 -7 -32 0
16 -7 -37 0
16 -8 -13 0
16 -8 -18 0
16 -8 -23 0
16 -8 -28 0
16 -8 -33 0
16 -8 -38 0
16 -9 -14 0
16 -9 -19 0
16 -9 -24 0
16 -9 -29 0
16 -9 -34 0
16 -9 -39 0
16 -10 -15 0
16 -10 -20 0
16 -10 -25 0
16 -10 -30 0
16 -10 -35 0
16 -10 -40 0
16 -11 -16 0
16 -11 -21 0
16 -11 -26 0
16 -11 -31 0
16 -11 -36 0
16 -12 -17 0
16 -12 -22 0
16 -12 -27 0
16 -12 -32 0
16 -12 -37 0
16 -13 -18 0
16 -13 -23 0
16 -13 -28 0
16 -13 -33 0
16 -13 -38 0
16 -14 -19 0
16 -14 -24 0
16 -14 -29 0
16 -14 -34 0
16 -14 -39 0
16 -15 -20 0
16 -15 -25 0
16 -15 -30 0
16 -15 -35 0
16 -15 -40 0
16 -16 -21 0
16 -16 -26 0
16 -16 -31 0
16 -16 -36 0
16 -17 -22 0
16 -17 -27 0
16 -17 -32 0
16 -17 -37 0
16 -18 -23 0
16 -18 -28 0
16 -18 -33 0
16 -18 -38 0
16 -19 -24 0
16 -19 -29 0
16 -19 -34 0
16 -19 -39 0
16 -20 -25 0
16 -20 -30 0
16 -20 -35 0
16 -20 -40 0
16 -21 -26 0
16 -21 -31 0
16 -21 -36 0
16 -22 -27 0
16 -22 -32 0
16 -22 -37 0
16 -23 -28 0
16 -23 -33 0
16 -23 -38 0
16 -24 -29 0
16 -24 -34 0
16 -24 -39 0
16 -25 -30 0
16 -25 -35 0
16 -25 -40 0
16 -26 -31 0
16 -26 -36 0
16 -27 -32 0
16 -27 -37 0
16 -28 -33 0
16 -28 -38 0
16 -29 -34 0
16 -29 -39 0
16 -30 -35 0
16 -30 -40 0
16 -31 -36 0
16 -32 -37 0
16 -33 -38 0
16 -34 -39 0
16 -35 -40 0
16 -1 -2 0
16 -1 -3 0
16 -1 -4 0
16 -1 -5 0
16 -2 -3 0
16 -2 -4 0
16 -2 -5 0
16 -3 -4 0
16 -3 -5 0
16 -4 -5 0
16 -6 -7 0
16 -6 -8 0
16 -6 -9 0
16 -6 -10 0
16 -7 -8 0
16 -7 -9 0
16 -7 -10 0
16 -8 -9 0
16 -8 -10 0
16 -9 -10 0
16 -11 -12 0
16 -11 -13 0
16 -11 -14 0
16 -11 -15 0
16 -12 -13 0
16 -12 -14 0
16 -12 -15 0
16 -13 -14 0
16 -13 -15 0
16 -14 -15 0
16 -16 -17 0
16 -16 -18 0
16 -16 -19 0
16 -16 -20 0
16 -17 -18 0
16 -17 -19 0
16 -17 -20 0
16 -18 -19 0
16 -18 -20 0
16 -19 -20 0
16 -21 -22 0
16 -21 -23 0
16 -21 -24 0
16 -21 -25 0
16 -22 -23 0
16 -22 -24 0
16 -22 -25 0
16 -23 -24 0
16 -23 -25 0
16 -24 -25 0
16 -26 -27 0
16 -26 -28 0
16 -26 -29 0
16 -26 -30 0
16 -27 -28 0
16 -27 -29 0
16 -27 -30 0
16 -28 -29 0
16 -28 -30 0
16 -29 -30 0
16 -31 -32 0
16 -31 -33 0
16 -31 -34 0
16 -31 -35 0
16 -32 -33 0
16 -32 -34 0
16 -32 -35 0
16 -33 -34 0
16 -33 -35 0
16 -34 -35 0
16 -36 -37 0
16 -36 -38 0
16 -36 -39 0
16 -36 -40 0
16 -37 -38 0
16 -37 -39 0
16 -37 -40 0
16 -38 -39 0
16 -38 -40 0
16 -39 -40 0
