sat_in/task3/28.cnf
p cnf 32 296
1 5 9 13 17 21 25 29 0
2 6 10 14 18 22 26 30 0
3 7 11 15 19 23 27 31 0
4 8 12 16 20 24 28 32 0
-1 -10 0
-1 -11 0
-1 -12 0
-2 -9 0
-2 -11 0
-2 -12 0
-3 -9 0
-3 -10 0
-3 -12 0
-4 -9 0
-4 -10 0
-4 -11 0
-1 -26 0
-1 -27 0
-1 -28 0
-2 -25 0
-2 -27 0
-2 -28 0
-3 -25 0
-3 -26 0
-3 -28 0
-4 -25 0
-4 -26 0
-4 -27 0
-1 -30 0
-1 -31 0
-1 -32 0
-2 -29 0
-2 -31 0
-2 -32 0
-3 -29 0
-3 -30 0
-3 -32 0
-4 -29 0
-4 -30 0
-4 -31 0
-5 -30 0
-5 -31 0
-5 -32 0
-6 -29 0
-6 -31 0
-6 -32 0
-7 -29 0
-7 -30 0
-7 -32 0
-8 -29 0
-8 -30 0
-8 -31 0
-9 -14 0
-9 -15 0
-9 -16 0
-10 -13 0
-10 -15 0
-10 -16 0
-11 -13 0
-11 -14 0
-11 -16 0
-12 -13 0
-12 -14 0
-12 -15 0
-9 -18 0
-9 -19 0
-9 -20 0
-10 -17 0
-10 -19 0
-10 -20 0
-11 -17 0
-11 -18 0
-11 -20 0
-12 -17 0
-12 -18 0
-12 -19 0
-9 -22 0
-9 -23 0
-9 -24 0
-10 -21 0
-10 -23 0
-10 -24 0
-11 -21 0
-11 -22 0
-11 -24 0
-12 -21 0
-12 -22 0
-12 -23 0
-13 -18 0
-13 -19 0
-13 -20 0
-14 -17 0
-14 -19 0
-14 -20 0
-15 -17 0
-15 -18 0
-15 -20 0
-16 -17 0
-16 -18 0
-16 -19 0
-21 -26 0
-21 -27 0
-21 -28 0
-22 -25 0
-22 -27 0
-22 -28 0
-23 -25 0
-23 -26 0
-23 -28 0
-24 -25 0
-24 -26 0
-24 -27 0
-21 -30 0
-21 -31 0
-21 -32 0
-22 -29 0
-22 -31 0
-22 -32 0
-23 -29 0
-23 -30 0
-23 -32 0
-24 -29 0
-24 -30 0
-24 -31 0
-25 -30 0
-25 -31 0
-25 -32 0
-26 -29 0
-26 -31 0
-26 -32 0
-27 -29 0
-27 -30 0
-27 -32 0
-28 -29 0
-28 -30 0
-28 -31 0
-33 -6 0
-33 -7 0
-33 -8 0
-34 -5 0
-34 -7 0
-34 -8 0
-35 -5 0
-35 -6 0
-35 -8 0
-36 -5 0
-36 -6 0
-36 -7 0
-33 -10 0
-33 -11 0
-33 -12 0
-34 -9 0
-34 -11 0
-34 -12 0
-35 -9 0
-35 -10 0
-35 -12 0
-36 -9 0
-36 -10 0
-36 -11 0
-33 -14 0
-33 -15 0
-33 -16 0
-34 -13 0
-34 -15 0
-34 -16 0
-35 -13 0
-35 -14 0
-35 -16 0
-36 -13 0
-36 -14 0
-36 -15 0
-33 -18 0
-33 -19 0
-33 -20 0
-34 -17 0
-34 -19 0
-34 -20 0
-35 -17 0
-35 -18 0
-35 -20 0
-36 -17 0
-36 -18 0
-36 -19 0
-33 -22 0
-33 -23 0
-33 -24 0
-34 -21 0
-34 -23 0
-34 -24 0
-35 -21 0
-35 -22 0
-35 -24 0
-36 -21 0
-36 -22 0
-36 -23 0
-33 -26 0
-33 -27 0
-33 -28 0
-34 -25 0
-34 -27 0
-34 -28 0
-35 -25 0
-35 -26 0
-35 -28 0
-36 -25 0
-36 -26 0
-36 -27 0
-33 -30 0
-33 -31 0
-33 -32 0
-34 -29 0
-34 -31 0
-34 -32 0
-35 -29 0
-35 -30 0
-35 -32 0
-36 -29 0
-36 -30 0
-36 -31 0
-37 -10 0
-37 -11 0
-37 -12 0
-38 -9 0
-38 -11 0
-38 -12 0
-39 -9 0
-39 -10 0
-39 -12 0
-40 -9 0
-40 -10 0
-40 -11 0
-37 -14 0
-37 -15 0
-37 -16 0
-38 -13 0
-38 -15 0
-38 -16 0
-39 -13 0
-39 -14 0
-39 -16 0
-40 -13 0
-40 -14 0
-40 -15 0
-37 -18 0
-37 -19 0
-37 -20 0
-38 -17 0
-38 -19 0
-38 -20 0
-39 -17 0
-39 -18 0
-39 -20 0
-40 -17 0
-40 -18 0
-40 -19 0
-37 -22 0
-37 -23 0
-37 -24 0
-38 -21 0
-38 -23 0
-38 -24 0
-39 -21 0
-39 -22 0
-39 -24 0
-40 -21 0
-40 -22 0
-40 -23 0
-37 -26 0
-37 -27 0
-37 -28 0
-38 -25 0
-38 -27 0
-38 -28 0
-39 -25 0
-39 -26 0
-39 -28 0
-40 -25 0
-40 -26 0
-40 -27 0
-37 -30 0
-37 -31 0
-37 -32 0
-38 -29 0
-38 -31 0
-38 -32 0
-39 -29 0
-39 -30 0
-39 -32 0
-40 -29 0
-40 -30 0
-40 -31 0
-41 -14 0
-41 -15 0
-41 -16 0
-42 -13 0
-42 -15 0
-42 -16 0
-43 -13 0
-43 -14 0
-43 -16 0
-44 -13 0
-44 -14 0
-44 -15 0
-41 -18 0
-41 -19 0
-41 -20 0
-42 -17 0
-42 -19 0
-42 -20 0
-43 -17 0
-43 -18 0
-43 -20 0
-44 -17 0
-44 -18 0
-44 -19 0
-41 -22 0
-41 -23 0
-41 -24 0
-42 -21 0
-42 -23 0
-42 -24 0
-43 -21 0
-43 -22 0
-43 -24 0
-44 -21 0
-44 -22 0
-44 -23 0
-41 -26 0
-41 -27 0
-41 -28 0
-42 -25 0
-42 -27 0
-42 -28 0
-43 -25 0
-43 -26 0
-43 -28 0
-44 -25 0
-44 -26 0
-44 -27 0
-41 -30 0
-41 -31 0
-41 -32 0
-42 -29 0
-42 -31 0
-42 -32 0
-43 -29 0
-43 -30 0
-43 -32 0
-44 -29 0
-44 -30 0
-44 -31 0
-45 -18 0
-45 -19 0
-45 -20 0
-46 -17 0
-46 -19 0
-46 -20 0
-47 -17 0
-47 -18 0
-47 -20 0
-48 -17 0
-48 -18 0
-48 -19 0
-45 -22 0
-45 -23 0
-45 -24 0
-46 -21 0
-46 -23 0
-46 -24 0
-47 -21 0
-47 -22 0
-47 -24 0
-48 -21 0
-48 -22 0
-48 -23 0
-45 -26 0
-45 -27 0
-45 -28 0
-46 -25 0
-46 -27 0
-46 -28 0
-47 -25 0
-47 -26 0
-47 -28 0
-48 -25 0
-48 -26 0
-48 -27 0
-45 -30 0
-45 -31 0
-45 -32 0
-46 -29 0
-46 -31 0
-46 -32 0
-47 -29 0
-47 -30 0
-47 -32 0
-48 -29 0
-48 -30 0
-48 -31 0
-49 -22 0
-49 -23 0
-49 -24 0
-50 -21 0
-50 -23 0
-50 -24 0
-51 -21 0
-51 -22 0
-51 -24 0
-52 -21 0
-52 -22 0
-52 -23 0
-49 -26 0
-49 -27 0
-49 -28 0
-50 -25 0
-50 -27 0
-50 -28 0
-51 -25 0
-51 -26 0
-51 -28 0
-52 -25 0
-52 -26 0
-52 -27 0
-49 -30 0
-49 -31 0
-49 -32 0
-50 -29 0
-50 -31 0
-50 -32 0
-51 -29 0
-51 -30 0
-51 -32 0
-52 -29 0
-52 -30 0
-52 -31 0
-53 -26 0
-53 -27 0
-53 -28 0
-54 -25 0
-54 -27 0
-54 -28 0
-55 -25 0
-55 -26 0
-55 -28 0
-56 -25 0
-56 -26 0
-56 -27 0
-53 -30 0
-53 -31 0
-53 -32 0
-54 -29 0
-54 -31 0
-54 -32 0
-55 -29 0
-55 -30 0
-55 -32 0
-56 -29 0
-56 -30 0
-56 -31 0
-57 -30 0
-57 -31 0
-57 -32 0
-58 -29 0
-58 -31 0
-58 -32 0
-59 -29 0
-59 -30 0
-59 -32 0
-60 -29 0
-60 -30 0
-60 -31 0
-1 -5 0
-1 -9 0
-1 -13 0
-1 -17 0
-1 -21 0
-1 -25 0
-1 -29 0
-2 -6 0
-2 -10 0
-2 -14 0
-2 -18 0
-2 -22 0
-2 -26 0
-2 -30 0
-3 -7 0
-3 -11 0
-3 -15 0
-3 -19 0
-3 -23 0
-3 -27 0
-3 -31 0
-4 -8 0
-4 -12 0
-4 -16 0
-4 -20 0
-4 -24 0
-4 -28 0
-4 -32 0
-5 -9 0
-5 -13 0
-5 -17 0
-5 -21 0
-5 -25 0
-5 -29 0
-6 -10 0
-6 -14 0
-6 -18 0
-6 -22 0
-6 -26 0
-6 -30 0
-7 -11 0
-7 -15 0
-7 -19 0
-7 -23 0
-7 -27 0
-7 -31 0
-8 -12 0
-8 -16 0
-8 -20 0
-8 -24 0
-8 -28 0
-8 -32 0
-9 -13 0
-9 -17 0
-9 -21 0
-9 -25 0
-9 -29 0
-10 -14 0
-10 -18 0
-10 -22 0
-10 -26 0
-10 -30 0
-11 -15 0
-11 -19 0
-11 -23 0
-11 -27 0
-11 -31 0
-12 -16 0
-12 -20 0
-12 -24 0
-12 -28 0
-12 -32 0
-13 -17 0
-13 -21 0
-13 -25 0
-13 -29 0
-14 -18 0
-14 -22 0
-14 -26 0
-14 -30 0
-15 -19 0
-15 -23 0
-15 -27 0
-15 -31 0
-16 -20 0
-16 -24 0
-16 -28 0
-16 -32 0
-17 -21 0
-17 -25 0
-17 -29 0
-18 -22 0
-18 -26 0
-18 -30 0
-19 -23 0
-19 -27 0
-19 -31 0
-20 -24 0
-20 -28 0
-20 -32 0
-21 -25 0
-21 -29 0
-22 -26 0
-22 -30 0
-23 -27 0
-23 -31 0
-24 -28 0
-24 -32 0
-25 -29 0
-26 -30 0
-27 -31 0
-28 -32 0
-1 -2 0
-1 -3 0
-1 -4 0
-2 -3 0
-2 -4 0
-3 -4 0
-5 -6 0
-5 -7 0
-5 -8 0
-6 -7 0
-6 -8 0
-7 -8 0
-9 -10 0
-9 -11 0
-9 -12 0
-10 -11 0
-10 -12 0
-11 -12 0
-13 -14 0
-13 -15 0
-13 -16 0
-14 -15 0
-14 -16 0
-15 -16 0
-17 -18 0
-17 -19 0
-17 -20 0
-18 -19 0
-18 -20 0
-19 -20 0
-21 -22 0
-21 -23 0
-21 -24 0
-22 -23 0
-22 -24 0
-23 -24 0
-25 -26 0
-25 -27 0
-25 -28 0
-26 -27 0
-26 -28 0
-27 -28 0
-29 -30 0
-29 -31 0
-29 -32 0
-30 -31 0
-30 -32 0
-31 -32 0
